====================================================================================================================
File name: 200_20_54_15.def
Creation date: Mon Nov 24 20:40:31 CET 2014
Website: http://imopse.ii.pwr.edu.pl/
Reference:
Myszkowski P. B., Skowronski M. E., Olech L., Oslizlo K.,
Hybrid Ant Colony Optimization in solving Multi-Skill Resource-Constrained Project Scheduling Problem,
Soft Computing, DOI: DOI 10.1007/s00500-014-1455-x
====================================================================================================================
General characteristics:
Tasks: 200
Resources: 20
Precedence relations: 54
Number of skill types: 15
====================================================================================================================
ResourceID 	 Salary 	 Skills
1	 	 	99.0	 	 Q2: 2 	  Q3: 0 	  Q10: 2 	  Q7: 0 	  Q14: 0 	  Q6: 1
2	 	 	76.8	 	 Q6: 1 	  Q14: 0 	  Q10: 2 	  Q7: 1 	  Q9: 1 	  Q3: 2
3	 	 	96.0	 	 Q9: 1 	  Q12: 1 	  Q7: 0 	  Q13: 2 	  Q5: 1 	  Q10: 0
4	 	 	19.6	 	 Q0: 0 	  Q7: 0 	  Q1: 0 	  Q6: 1 	  Q9: 0 	  Q8: 2
5	 	 	73.4	 	 Q9: 0 	  Q10: 0 	  Q2: 1 	  Q4: 0 	  Q8: 0 	  Q12: 0
6	 	 	58.5	 	 Q11: 0 	  Q12: 2 	  Q9: 1 	  Q8: 2 	  Q6: 2 	  Q7: 2
7	 	 	58.5	 	 Q6: 0 	  Q3: 0 	  Q0: 2 	  Q12: 2 	  Q14: 2 	  Q9: 2
8	 	 	14.9	 	 Q4: 0 	  Q9: 0 	  Q6: 0 	  Q10: 0 	  Q3: 1 	  Q13: 0
9	 	 	57.1	 	 Q10: 2 	  Q12: 0 	  Q4: 0 	  Q13: 2 	  Q2: 1 	  Q7: 1
10	 	 	46.0	 	 Q13: 1 	  Q4: 1 	  Q14: 0 	  Q6: 2 	  Q2: 2 	  Q5: 0
11	 	 	62.1	 	 Q1: 1 	  Q12: 1 	  Q7: 0 	  Q3: 1 	  Q0: 2 	  Q10: 2
12	 	 	45.1	 	 Q9: 2 	  Q13: 0 	  Q11: 0 	  Q8: 2 	  Q14: 1 	  Q0: 1
13	 	 	91.8	 	 Q5: 2 	  Q0: 1 	  Q7: 2 	  Q4: 1 	  Q11: 1 	  Q12: 2
14	 	 	55.7	 	 Q2: 1 	  Q8: 1 	  Q0: 2 	  Q6: 2 	  Q14: 0 	  Q5: 0
15	 	 	19.2	 	 Q4: 2 	  Q10: 0 	  Q9: 1 	  Q12: 1 	  Q3: 1 	  Q11: 2
16	 	 	76.1	 	 Q9: 1 	  Q1: 0 	  Q14: 2 	  Q12: 1 	  Q13: 2 	  Q6: 0
17	 	 	37.9	 	 Q14: 1 	  Q8: 1 	  Q3: 0 	  Q4: 2 	  Q5: 0 	  Q0: 2
18	 	 	94.9	 	 Q7: 0 	  Q10: 2 	  Q9: 1 	  Q5: 0 	  Q6: 0 	  Q1: 0
19	 	 	45.1	 	 Q12: 2 	  Q1: 0 	  Q3: 2 	  Q2: 2 	  Q9: 0 	  Q7: 1
20	 	 	56.8	 	 Q10: 2 	  Q2: 1 	  Q4: 0 	  Q7: 2 	  Q6: 1 	  Q11: 0
====================================================================================================================
TaskID 	 Duration 	 Skill 	 Predecessor IDs
1	 	 	33	 Q3: 0
2	 	 	20	 Q11: 2
3	 	 	31	 Q6: 1
4	 	 	33	 Q3: 2
5	 	 	18	 Q8: 0
6	 	 	40	 Q9: 2
7	 	 	14	 Q11: 2
8	 	 	39	 Q13: 0
9	 	 	21	 Q2: 2
10	 	 	31	 Q2: 1
11	 	 	36	 Q11: 2
12	 	 	33	 Q6: 0
13	 	 	37	 Q3: 2
14	 	 	9	 Q3: 0
15	 	 	15	 Q9: 0
16	 	 	16	 Q12: 2
17	 	 	28	 Q6: 1
18	 	 	37	 Q8: 1
19	 	 	28	 Q7: 0
20	 	 	12	 Q11: 0
21	 	 	16	 Q12: 0
22	 	 	21	 Q9: 2	 	13
23	 	 	16	 Q9: 0
24	 	 	28	 Q6: 1
25	 	 	25	 Q11: 0
26	 	 	38	 Q8: 0
27	 	 	37	 Q14: 2
28	 	 	16	 Q4: 2
29	 	 	18	 Q14: 2
30	 	 	35	 Q14: 1
31	 	 	10	 Q11: 0
32	 	 	23	 Q0: 0
33	 	 	40	 Q9: 1
34	 	 	25	 Q5: 1
35	 	 	38	 Q4: 2
36	 	 	22	 Q8: 1
37	 	 	30	 Q0: 1
38	 	 	33	 Q12: 1
39	 	 	32	 Q7: 1
40	 	 	23	 Q3: 2
41	 	 	14	 Q8: 2	 	38
42	 	 	22	 Q4: 1
43	 	 	12	 Q13: 2	 	18
44	 	 	29	 Q11: 0
45	 	 	34	 Q5: 2
46	 	 	36	 Q14: 1
47	 	 	13	 Q3: 2	 	24
48	 	 	27	 Q14: 0
49	 	 	19	 Q10: 2
50	 	 	17	 Q8: 2
51	 	 	37	 Q14: 2
52	 	 	33	 Q10: 0
53	 	 	40	 Q13: 0
54	 	 	40	 Q0: 0
55	 	 	28	 Q5: 2
56	 	 	27	 Q5: 1
57	 	 	23	 Q3: 2
58	 	 	28	 Q8: 1
59	 	 	12	 Q0: 1
60	 	 	9	 Q0: 1
61	 	 	12	 Q3: 2
62	 	 	16	 Q9: 0
63	 	 	34	 Q12: 2
64	 	 	30	 Q9: 2
65	 	 	33	 Q10: 0
66	 	 	30	 Q4: 2
67	 	 	28	 Q3: 0
68	 	 	35	 Q8: 2
69	 	 	29	 Q8: 2
70	 	 	18	 Q3: 0
71	 	 	23	 Q14: 1
72	 	 	12	 Q1: 0
73	 	 	9	 Q4: 2
74	 	 	38	 Q5: 0
75	 	 	35	 Q2: 1
76	 	 	22	 Q1: 1	 	61
77	 	 	34	 Q12: 2
78	 	 	9	 Q4: 0	 	5
79	 	 	35	 Q0: 2	 	24
80	 	 	35	 Q14: 1
81	 	 	16	 Q1: 0
82	 	 	36	 Q6: 2
83	 	 	36	 Q6: 2
84	 	 	14	 Q9: 2	 	66
85	 	 	16	 Q14: 2
86	 	 	37	 Q2: 1	 	4
87	 	 	31	 Q12: 2
88	 	 	24	 Q7: 0
89	 	 	27	 Q4: 2	 	55
90	 	 	33	 Q6: 1
91	 	 	26	 Q2: 2
92	 	 	12	 Q6: 0
93	 	 	32	 Q9: 1	 	21	20
94	 	 	20	 Q12: 1
95	 	 	18	 Q3: 0
96	 	 	20	 Q12: 0
97	 	 	39	 Q8: 1
98	 	 	9	 Q3: 1
99	 	 	37	 Q14: 0
100	 	 	20	 Q4: 1
101	 	 	18	 Q4: 0
102	 	 	26	 Q12: 1
103	 	 	33	 Q12: 2
104	 	 	35	 Q8: 1
105	 	 	36	 Q7: 1
106	 	 	23	 Q5: 0
107	 	 	18	 Q3: 0	 	98
108	 	 	19	 Q11: 2
109	 	 	16	 Q12: 0
110	 	 	34	 Q7: 1
111	 	 	33	 Q7: 2
112	 	 	34	 Q11: 0
113	 	 	11	 Q0: 0	 	98
114	 	 	31	 Q7: 2
115	 	 	30	 Q8: 2	 	5
116	 	 	12	 Q3: 0
117	 	 	26	 Q13: 1
118	 	 	9	 Q4: 0	 	95
119	 	 	22	 Q13: 1
120	 	 	10	 Q6: 0	 	27
121	 	 	9	 Q1: 0	 	1
122	 	 	30	 Q11: 2	 	21
123	 	 	30	 Q4: 1
124	 	 	40	 Q1: 1
125	 	 	15	 Q0: 2
126	 	 	27	 Q0: 2
127	 	 	29	 Q5: 2
128	 	 	19	 Q2: 2
129	 	 	28	 Q10: 0
130	 	 	22	 Q3: 0
131	 	 	10	 Q4: 0	 	26
132	 	 	24	 Q3: 0
133	 	 	35	 Q11: 1
134	 	 	33	 Q8: 1	 	37
135	 	 	34	 Q6: 0	 	40
136	 	 	35	 Q4: 2
137	 	 	28	 Q5: 2
138	 	 	13	 Q11: 1	 	22
139	 	 	16	 Q9: 2
140	 	 	40	 Q7: 2
141	 	 	36	 Q11: 0
142	 	 	20	 Q11: 0
143	 	 	39	 Q3: 2
144	 	 	9	 Q4: 0	 	6
145	 	 	20	 Q4: 0
146	 	 	10	 Q4: 0	 	58	22	1
147	 	 	40	 Q3: 1	 	119
148	 	 	12	 Q11: 2
149	 	 	24	 Q7: 0
150	 	 	12	 Q13: 1	 	139
151	 	 	39	 Q0: 2
152	 	 	27	 Q7: 1
153	 	 	38	 Q1: 0
154	 	 	25	 Q6: 2
155	 	 	36	 Q7: 1
156	 	 	16	 Q4: 0
157	 	 	27	 Q12: 0
158	 	 	39	 Q10: 2	 	147	39
159	 	 	12	 Q4: 1	 	45
160	 	 	21	 Q5: 2
161	 	 	16	 Q11: 2
162	 	 	22	 Q13: 0
163	 	 	18	 Q0: 0
164	 	 	9	 Q5: 1
165	 	 	27	 Q14: 0	 	9
166	 	 	30	 Q12: 0
167	 	 	35	 Q9: 0
168	 	 	9	 Q7: 1
169	 	 	33	 Q8: 2
170	 	 	32	 Q11: 1	 	99
171	 	 	40	 Q7: 1	 	30
172	 	 	23	 Q7: 0	 	103
173	 	 	17	 Q8: 0
174	 	 	19	 Q3: 1	 	109
175	 	 	22	 Q3: 1
176	 	 	39	 Q4: 0
177	 	 	36	 Q0: 1
178	 	 	38	 Q12: 1
179	 	 	13	 Q11: 2	 	103
180	 	 	13	 Q6: 0	 	162	148
181	 	 	21	 Q14: 2
182	 	 	22	 Q8: 0	 	103
183	 	 	34	 Q10: 0
184	 	 	39	 Q7: 2
185	 	 	29	 Q14: 1	 	110
186	 	 	27	 Q8: 2	 	116
187	 	 	38	 Q9: 1
188	 	 	34	 Q3: 2
189	 	 	39	 Q13: 0
190	 	 	29	 Q0: 0	 	146
191	 	 	19	 Q9: 0
192	 	 	10	 Q14: 2
193	 	 	9	 Q8: 2	 	181	83	50
194	 	 	16	 Q13: 1
195	 	 	34	 Q1: 1	 	148	145	27
196	 	 	11	 Q6: 2	 	130
197	 	 	31	 Q13: 0	 	133
198	 	 	12	 Q1: 1
199	 	 	33	 Q9: 1
200	 	 	29	 Q14: 1	 	29	37
====================================================================================================================
